
  22   10
  10   10   10   10   10   10   10   10   10   10

   0   0   0   0   0   0   0   0   0   0   0   4 2 3 4 7 
   7  10  10  10  10  10  10  10  10  10  10   4 9 8 6 5 
   5  10  10  10  10  10  10  10  10  10  10   4 9 8 6 5 
   3  10  10  10  10  10  10  10  10  10  10   1 5 
   6  10  10  10  10  10  10  10  10  10  10   2 11 10 
   5  10  10  10  10  10  10  10  10  10  10   2 11 10 
   3  10  10  10  10  10  10  10  10  10  10   2 11 10 
   2  10  10  10  10  10  10  10  10  10  10   2 12 10 
  10  10  10  10  10  10  10  10  10  10  10   2 12 10 
   4  10  10  10  10  10  10  10  10  10  10   5 18 16 15 14 13 
   4  10  10  10  10  10  10  10  10  10  10   3 18 16 12 
   2  10  10  10  10  10  10  10  10  10  10   3 21 20 17 
   7  10  10  10  10  10  10  10  10  10  10   3 21 20 19 
   3  10  10  10  10  10  10  10  10  10  10   2 20 17 
   3  10  10  10  10  10  10  10  10  10  10   2 21 20 
   6  10  10  10  10  10  10  10  10  10  10   1 17 
   8  10  10  10  10  10  10  10  10  10  10   1 19 
   7  10  10  10  10  10  10  10  10  10  10   1 19 
   8  10  10  10  10  10  10  10  10  10  10   1 22
   6  10  10  10  10  10  10  10  10  10  10   1 22
   8  10  10  10  10  10  10  10  10  10  10   1 22
   0   0   0   0   0   0   0   0   0   0   0   0 
